c FILE: i080-341

c SOURCE: From steinlib

c DESCRIPTION: Steinlib instance with 80 nodes and 632 edges.

p edge 80 632
e 1 6
e 1 8
e 1 11
e 1 12
e 1 14
e 1 15
e 1 27
e 1 28
e 1 35
e 1 43
e 1 46
e 1 47
e 1 54
e 1 61
e 1 65
e 1 67
e 1 69
e 1 70
e 1 73
e 1 76
e 1 79
e 2 37
e 2 39
e 2 41
e 2 42
e 2 45
e 2 49
e 2 50
e 2 52
e 2 54
e 2 58
e 2 63
e 2 71
e 2 79
e 2 80
e 3 15
e 3 16
e 3 22
e 3 32
e 3 34
e 3 35
e 3 47
e 4 5
e 4 12
e 4 15
e 4 27
e 4 29
e 4 30
e 4 32
e 4 33
e 4 47
e 4 50
e 4 52
e 4 53
e 4 54
e 4 64
e 4 66
e 4 70
e 4 71
e 4 74
e 4 76
e 4 78
e 5 11
e 5 15
e 5 26
e 5 30
e 5 32
e 5 34
e 5 43
e 5 52
e 5 54
e 5 58
e 5 59
e 5 63
e 5 70
e 5 72
e 5 79
e 6 10
e 6 16
e 6 18
e 6 28
e 6 36
e 6 55
e 6 62
e 6 65
e 6 68
e 6 74
e 6 77
e 6 78
e 6 80
e 7 11
e 7 12
e 7 26
e 7 33
e 7 50
e 7 53
e 7 62
e 7 64
e 7 75
e 7 80
e 8 9
e 8 13
e 8 19
e 8 21
e 8 27
e 8 31
e 8 35
e 8 38
e 8 52
e 8 54
e 8 60
e 8 61
e 8 63
e 8 68
e 8 72
e 9 16
e 9 35
e 9 43
e 9 47
e 9 60
e 9 67
e 9 70
e 10 35
e 10 36
e 10 46
e 10 51
e 10 54
e 10 57
e 10 63
e 10 64
e 10 67
e 10 76
e 10 79
e 10 80
e 11 16
e 11 22
e 11 29
e 11 33
e 11 36
e 11 52
e 11 59
e 11 61
e 11 63
e 11 64
e 11 70
e 11 74
e 11 77
e 12 15
e 12 16
e 12 18
e 12 40
e 12 42
e 12 45
e 12 47
e 12 48
e 12 52
e 12 55
e 12 56
e 12 57
e 12 59
e 12 68
e 12 74
e 13 14
e 13 17
e 13 20
e 13 23
e 13 36
e 13 44
e 13 49
e 13 52
e 13 58
e 13 61
e 13 62
e 13 63
e 13 65
e 13 66
e 13 77
e 13 80
e 14 17
e 14 18
e 14 21
e 14 27
e 14 28
e 14 38
e 14 39
e 14 42
e 14 44
e 14 49
e 14 51
e 14 56
e 14 71
e 14 79
e 15 18
e 15 20
e 15 23
e 15 28
e 15 34
e 15 40
e 15 42
e 15 47
e 15 49
e 15 55
e 15 56
e 15 57
e 15 59
e 15 63
e 15 65
e 15 66
e 15 71
e 15 73
e 15 75
e 15 76
e 16 18
e 16 21
e 16 26
e 16 38
e 16 45
e 16 47
e 16 50
e 16 51
e 16 52
e 16 53
e 16 54
e 16 67
e 16 70
e 17 20
e 17 22
e 17 23
e 17 24
e 17 39
e 17 40
e 17 42
e 17 47
e 17 49
e 17 51
e 17 59
e 17 62
e 17 63
e 17 72
e 17 75
e 17 77
e 17 78
e 18 20
e 18 26
e 18 27
e 18 35
e 18 36
e 18 52
e 18 57
e 18 58
e 18 61
e 18 64
e 18 66
e 18 68
e 18 72
e 18 77
e 19 24
e 19 27
e 19 31
e 19 33
e 19 41
e 19 49
e 19 56
e 19 61
e 19 63
e 19 67
e 19 70
e 19 75
e 20 25
e 20 37
e 20 43
e 20 44
e 20 45
e 20 46
e 20 47
e 20 52
e 20 59
e 20 70
e 20 73
e 20 74
e 20 77
e 20 78
e 20 79
e 21 22
e 21 24
e 21 26
e 21 47
e 21 49
e 21 58
e 21 61
e 21 70
e 21 72
e 21 74
e 21 75
e 21 77
e 22 23
e 22 25
e 22 31
e 22 35
e 22 45
e 22 46
e 22 47
e 22 49
e 22 65
e 22 70
e 22 72
e 22 74
e 22 77
e 23 24
e 23 30
e 23 34
e 23 41
e 23 44
e 23 46
e 23 48
e 23 50
e 23 53
e 23 56
e 23 60
e 23 64
e 23 67
e 23 79
e 24 26
e 24 44
e 24 46
e 24 55
e 24 68
e 24 76
e 25 37
e 25 47
e 25 57
e 25 65
e 25 69
e 26 27
e 26 37
e 26 40
e 26 42
e 26 51
e 26 58
e 26 68
e 26 76
e 26 80
e 27 33
e 27 36
e 27 41
e 27 48
e 27 49
e 27 54
e 27 62
e 27 68
e 28 31
e 28 32
e 28 40
e 28 42
e 28 50
e 28 52
e 28 58
e 28 63
e 28 66
e 28 68
e 28 77
e 29 38
e 29 44
e 29 46
e 29 49
e 29 51
e 29 57
e 29 60
e 29 69
e 29 70
e 29 71
e 29 72
e 29 73
e 30 31
e 30 32
e 30 33
e 30 42
e 30 45
e 30 49
e 30 58
e 30 59
e 30 64
e 30 70
e 30 79
e 31 37
e 31 40
e 31 45
e 31 47
e 31 53
e 31 55
e 31 56
e 31 58
e 31 64
e 31 70
e 31 71
e 31 74
e 31 76
e 32 41
e 32 45
e 32 47
e 32 48
e 32 55
e 32 56
e 32 74
e 33 41
e 33 43
e 33 46
e 33 47
e 33 58
e 33 60
e 33 76
e 33 79
e 34 38
e 34 42
e 34 45
e 34 49
e 34 57
e 34 60
e 34 61
e 34 76
e 34 77
e 34 80
e 35 37
e 35 42
e 35 57
e 35 60
e 35 64
e 35 67
e 35 73
e 35 79
e 36 37
e 36 38
e 36 42
e 36 46
e 36 48
e 36 49
e 36 53
e 36 58
e 36 59
e 36 61
e 36 68
e 36 69
e 36 71
e 37 44
e 37 46
e 37 48
e 37 50
e 37 51
e 37 52
e 37 53
e 37 59
e 37 60
e 37 69
e 38 45
e 38 49
e 38 74
e 38 77
e 39 44
e 39 47
e 39 48
e 39 49
e 39 53
e 39 54
e 39 55
e 39 60
e 39 62
e 39 73
e 39 74
e 40 61
e 40 67
e 40 79
e 40 80
e 41 48
e 41 49
e 41 58
e 41 62
e 41 68
e 41 71
e 41 72
e 41 79
e 41 80
e 42 45
e 42 47
e 42 48
e 42 54
e 42 56
e 42 57
e 42 70
e 42 74
e 42 78
e 43 47
e 43 51
e 43 55
e 43 59
e 43 60
e 43 62
e 43 65
e 43 66
e 44 50
e 44 51
e 44 52
e 44 53
e 44 54
e 44 56
e 44 70
e 45 51
e 45 69
e 45 70
e 45 74
e 45 77
e 46 59
e 46 71
e 46 78
e 46 79
e 47 49
e 47 52
e 47 60
e 47 63
e 47 64
e 47 65
e 47 66
e 47 67
e 47 69
e 47 78
e 48 52
e 48 54
e 48 59
e 48 64
e 48 65
e 48 74
e 48 78
e 48 79
e 49 54
e 49 55
e 49 59
e 49 62
e 49 64
e 49 72
e 49 74
e 50 55
e 50 59
e 50 63
e 50 65
e 50 70
e 50 74
e 50 78
e 51 68
e 51 69
e 51 77
e 52 60
e 52 62
e 52 68
e 52 70
e 52 79
e 52 80
e 53 55
e 53 58
e 53 65
e 53 69
e 53 73
e 53 76
e 53 77
e 54 57
e 54 59
e 54 67
e 54 71
e 54 74
e 54 77
e 54 80
e 55 64
e 55 67
e 55 70
e 55 71
e 55 73
e 56 60
e 56 62
e 56 66
e 56 75
e 56 76
e 56 78
e 57 59
e 57 63
e 57 79
e 58 67
e 59 63
e 59 75
e 59 77
e 59 80
e 60 61
e 60 62
e 60 63
e 61 63
e 61 65
e 61 70
e 61 79
e 62 63
e 62 70
e 62 75
e 63 65
e 63 69
e 63 72
e 63 76
e 63 79
e 64 70
e 64 73
e 65 68
e 65 69
e 65 73
e 65 75
e 65 77
e 65 80
e 66 67
e 66 69
e 66 73
e 66 76
e 67 68
e 67 74
e 67 78
e 68 72
e 68 75
e 69 72
e 70 71
e 70 78
e 70 79
e 71 72
e 72 73
e 72 74
e 72 80
e 73 74
e 75 78
e 76 80
e 77 78
